22 53
87 38
84 72
82 30
27 92
74 14
6 82
0 94
46 34
77 9
40 33
88 92
69 46
96 28
84 38
87 22
40 40
50 75
60 19
41 10
70 50
0 22
56 34
40 16
42 61
1 48
13 13
5 78
82 12
23 78
35 46
24 0
90 68
51 51
53 51
44 29
65 89
6 0
28 26
47 6
95 75
3 19
50 81
82 6
18 82
18 46
77 88
35 25
32 27
43 56
37 65
76 37
63 79
47 78
42 23
58 51
92 60
31 35
71 51
8 54
21 80
52 94
65 86
61 40
57 53
94 67
43 99
47 31
17 23
20 56
96 8
91 64
44 10
27 51
70 58
83 69
26 6
12 83
39 56
7 94
82 83
19 2
66 24
58 93
48 99
41 64
16 39
70 85
3 59
5 33
82 39
16 58
22 31
40 40
74 60
33 7
7 22
59 20
31 52
83 48
